NAME: S051D5_20
COMMENT: 1392.15
VEHICLE: 23
TIME: 195.4038
DIMENSION: 51
CAPACITY: 160
DELIVERY_SECTION
0 0 0
1 1 32
2 1 16
3 1 8
4 1 1.6
5 1 1.4
6 2 32
7 2 32
8 2 1.6
9 2 1.6
10 2 1.6
11 2 0.2
12 3 32
13 3 16
14 3 8
15 4 32
16 4 32
17 4 32
18 4 8
19 4 1.6
20 4 1.6
21 4 0.8
22 5 32
23 5 16
24 5 1
25 6 32
26 6 32
27 6 16
28 6 8
29 6 1.6
30 6 1.6
31 6 1.6
32 6 1.2
33 7 32
34 7 16
35 7 1.6
36 7 1.6
37 7 1.6
38 7 1.2
39 8 32
40 8 32
41 8 32
42 9 32
43 9 16
44 9 1.6
45 9 1.6
46 9 1.6
47 9 0.2
48 10 32
49 10 32
50 10 32
51 10 8
52 10 1.6
53 10 1.6
54 10 1.6
55 10 0.2
56 11 32
57 11 16
58 11 1.6
59 11 1.6
60 11 1.6
61 11 0.2
62 12 32
63 12 32
64 12 8
65 12 1.6
66 12 1.6
67 12 1.6
68 12 1.2
69 13 32
70 13 16
71 13 8
72 13 1.6
73 13 1.4
74 14 32
75 14 32
76 14 32
77 14 8
78 14 1.6
79 14 1.6
80 14 1.6
81 14 1.6
82 14 0.6
83 15 32
84 15 16
85 15 1.6
86 15 1.6
87 15 0.8
88 16 32
89 16 16
90 16 1.6
91 16 1.6
92 16 1.6
93 16 0.2
94 17 32
95 17 16
96 17 8
97 17 1.6
98 17 1.6
99 17 1.6
100 17 1.2
101 18 32
102 18 32
103 18 32
104 18 1.6
105 18 1.4
106 19 32
107 19 16
108 19 1.6
109 19 1.6
110 19 0.8
111 20 32
112 20 32
113 20 1.6
114 20 1.6
115 20 1.6
116 20 0.2
117 21 32
118 21 32
119 22 32
120 22 32
121 22 8
122 22 1.6
123 22 1.6
124 22 1.6
125 22 1.2
126 23 32
127 23 16
128 23 1.6
129 23 1.6
130 23 0.8
131 24 32
132 24 32
133 24 16
134 24 8
135 24 1.6
136 24 1.6
137 24 1.6
138 24 0.2
139 25 32
140 25 16
141 25 8
142 25 1.6
143 25 1.6
144 25 1.6
145 25 1.6
146 25 0.6
147 26 32
148 26 16
149 26 1.6
150 26 1.4
151 27 32
152 27 16
153 27 1.6
154 27 1.6
155 27 0.8
156 28 32
157 28 32
158 28 32
159 28 8
160 28 1.6
161 28 1.6
162 28 0.8
163 29 32
164 29 16
165 29 8
166 29 1.6
167 29 1.6
168 29 0.8
169 30 32
170 30 32
171 30 1.6
172 30 1.6
173 30 1.6
174 30 1.2
175 31 32
176 31 16
177 31 1.6
178 31 1.6
179 31 0.8
180 32 32
181 32 32
182 32 32
183 32 8
184 32 1.6
185 32 1.6
186 32 1.6
187 32 1.6
188 32 0.6
189 33 32
190 33 16
191 33 8
192 34 32
193 34 32
194 34 16
195 34 8
196 34 1.6
197 34 1.4
198 35 32
199 35 16
200 35 1.6
201 35 1.6
202 35 1.6
203 35 1.2
204 36 32
205 36 32
206 36 32
207 36 1.6
208 36 1.6
209 36 0.8
210 37 32
211 37 16
212 37 1
213 38 32
214 38 32
215 38 32
216 38 8
217 39 32
218 39 16
219 39 1.6
220 39 1.6
221 39 1.6
222 39 1.6
223 39 0.6
224 40 32
225 40 32
226 40 8
227 40 1.6
228 40 1.6
229 40 1.6
230 40 1.6
231 40 0.6
232 41 32
233 41 16
234 41 1.6
235 41 1.6
236 41 1.6
237 41 1.6
238 41 0.6
239 42 32
240 42 32
241 42 32
242 42 8
243 42 1.6
244 42 1.6
245 42 1.6
246 42 1.6
247 42 0.6
248 43 32
249 43 16
250 43 8
251 43 1.6
252 43 0.4
253 44 32
254 44 16
255 44 1.6
256 44 1.4
257 45 32
258 45 32
259 45 1.6
260 45 0.4
261 46 32
262 46 32
263 46 32
264 46 8
265 46 1.6
266 46 1.6
267 46 1.6
268 46 1.6
269 46 0.6
270 47 32
271 47 16
272 47 8
273 47 1.6
274 47 1.6
275 47 1.6
276 47 0.2
277 48 32
278 48 32
279 48 1.6
280 48 1.6
281 48 1.6
282 48 1.6
283 48 0.6
284 49 32
285 49 32
286 49 8
287 49 1.6
288 49 1.6
289 49 1.6
290 49 1.2
291 50 32
292 50 32
293 50 32
294 50 8
295 50 1.6
296 50 0.4
PICKUP_SECTION
NODE_SECTION
30 40

37 52

49 49

52 64

20 26

40 30

21 47

17 63

31 62

52 33

51 21

42 41

31 32

 5 25

12 42

36 16

52 41

27 23

17 33

13 13

57 58

62 42

42 57

16 57
 
8 52

 7 38

27 68

30 48

43 67

58 48

58 27

37 69

38 46

46 10

61 33

62 63

63 69

32 22

45 35

59 15

 5  6

10 17

21 10

 5 64

30 15

39 10

32 39

25 32

25 55

48 28

56 37
DISTANCE_SECTION
DEPOT_SECTION
0
EOF